p edge 1039 1928
e 1 16 1
e 2 18 1
e 2 3 1
e 3 19 1
e 3 4 1
e 4 20 1
e 4 5 1
e 5 21 1
e 5 6 1
e 6 22 1
e 6 7 1
e 7 23 1
e 7 8 1
e 8 24 1
e 8 9 1
e 9 25 1
e 9 10 1
e 10 26 1
e 10 11 1
e 11 27 1
e 11 12 1
e 12 28 1
e 12 13 1
e 13 29 1
e 13 14 1
e 14 30 1
e 15 31 1
e 15 16 1
e 16 32 1
e 17 39 1
e 17 18 1
e 18 40 1
e 18 19 1
e 19 41 1
e 19 20 1
e 20 42 1
e 20 21 1
e 21 43 1
e 21 22 1
e 22 44 1
e 22 23 1
e 23 45 1
e 23 24 1
e 24 46 1
e 24 25 1
e 25 47 1
e 25 26 1
e 26 48 1
e 26 27 1
e 27 49 1
e 27 28 1
e 28 50 1
e 28 29 1
e 29 51 1
e 29 30 1
e 30 52 1
e 31 54 1
e 31 32 1
e 32 55 1
e 32 33 1
e 33 56 1
e 33 34 1
e 34 57 1
e 34 35 1
e 35 58 1
e 35 36 1
e 36 59 1
e 36 37 1
e 37 60 1
e 37 38 1
e 38 61 1
e 38 39 1
e 39 62 1
e 39 40 1
e 40 63 1
e 40 41 1
e 41 64 1
e 41 42 1
e 42 65 1
e 42 43 1
e 43 66 1
e 43 44 1
e 44 67 1
e 44 45 1
e 45 68 1
e 45 46 1
e 46 69 1
e 46 47 1
e 47 70 1
e 47 48 1
e 48 71 1
e 48 49 1
e 49 72 1
e 49 50 1
e 50 73 1
e 50 51 1
e 51 74 1
e 51 52 1
e 52 75 1
e 52 53 1
e 53 76 1
e 54 77 1
e 54 55 1
e 55 78 1
e 55 56 1
e 56 79 1
e 56 57 1
e 57 80 1
e 57 58 1
e 58 81 1
e 58 59 1
e 59 82 1
e 59 60 1
e 60 83 1
e 60 61 1
e 61 84 1
e 61 62 1
e 62 85 1
e 62 63 1
e 63 86 1
e 63 64 1
e 64 87 1
e 64 65 1
e 65 88 1
e 65 66 1
e 66 89 1
e 66 67 1
e 67 90 1
e 67 68 1
e 68 91 1
e 68 69 1
e 69 92 1
e 69 70 1
e 70 93 1
e 70 71 1
e 71 94 1
e 71 72 1
e 72 95 1
e 72 73 1
e 73 96 1
e 73 74 1
e 74 97 1
e 74 75 1
e 75 98 1
e 75 76 1
e 76 99 1
e 77 100 1
e 77 78 1
e 78 101 1
e 78 79 1
e 79 102 1
e 79 80 1
e 80 103 1
e 80 81 1
e 81 104 1
e 81 82 1
e 82 105 1
e 82 83 1
e 83 106 1
e 83 84 1
e 84 107 1
e 84 85 1
e 85 108 1
e 85 86 1
e 86 109 1
e 86 87 1
e 87 110 1
e 87 88 1
e 88 111 1
e 88 89 1
e 89 112 1
e 89 90 1
e 90 113 1
e 90 91 1
e 91 114 1
e 91 92 1
e 92 115 1
e 92 93 1
e 93 116 1
e 93 94 1
e 94 117 1
e 94 95 1
e 95 118 1
e 95 96 1
e 96 119 1
e 96 97 1
e 97 120 1
e 97 98 1
e 98 121 1
e 98 99 1
e 99 122 1
e 100 125 1
e 100 101 1
e 101 126 1
e 101 102 1
e 102 127 1
e 102 103 1
e 103 128 1
e 103 104 1
e 104 129 1
e 104 105 1
e 105 130 1
e 105 106 1
e 106 131 1
e 106 107 1
e 107 132 1
e 107 108 1
e 108 133 1
e 108 109 1
e 109 134 1
e 109 110 1
e 110 135 1
e 110 111 1
e 111 136 1
e 111 112 1
e 112 137 1
e 112 113 1
e 113 138 1
e 113 114 1
e 114 139 1
e 114 115 1
e 115 140 1
e 115 116 1
e 116 141 1
e 116 117 1
e 117 142 1
e 117 118 1
e 118 143 1
e 118 119 1
e 119 144 1
e 119 120 1
e 120 145 1
e 120 121 1
e 121 146 1
e 121 122 1
e 122 147 1
e 123 148 1
e 123 124 1
e 124 149 1
e 124 125 1
e 125 150 1
e 125 126 1
e 126 151 1
e 126 127 1
e 127 152 1
e 127 128 1
e 128 153 1
e 128 129 1
e 129 154 1
e 129 130 1
e 130 155 1
e 130 131 1
e 131 156 1
e 131 132 1
e 132 157 1
e 132 133 1
e 133 158 1
e 133 134 1
e 134 159 1
e 134 135 1
e 135 160 1
e 135 136 1
e 136 161 1
e 136 137 1
e 137 162 1
e 137 138 1
e 138 163 1
e 138 139 1
e 139 164 1
e 139 140 1
e 140 165 1
e 140 141 1
e 141 166 1
e 141 142 1
e 142 167 1
e 142 143 1
e 143 168 1
e 143 144 1
e 144 169 1
e 144 145 1
e 145 170 1
e 145 146 1
e 146 171 1
e 146 147 1
e 147 172 1
e 148 176 1
e 148 149 1
e 149 177 1
e 149 150 1
e 150 178 1
e 150 151 1
e 151 179 1
e 151 152 1
e 152 180 1
e 152 153 1
e 153 181 1
e 153 154 1
e 154 182 1
e 154 155 1
e 155 183 1
e 155 156 1
e 156 184 1
e 156 157 1
e 157 185 1
e 157 158 1
e 158 186 1
e 158 159 1
e 159 187 1
e 159 160 1
e 160 188 1
e 160 161 1
e 161 189 1
e 161 162 1
e 162 190 1
e 162 163 1
e 163 191 1
e 163 164 1
e 164 192 1
e 164 165 1
e 165 193 1
e 165 166 1
e 166 194 1
e 166 167 1
e 167 195 1
e 167 168 1
e 168 196 1
e 168 169 1
e 169 197 1
e 169 170 1
e 170 198 1
e 170 171 1
e 171 199 1
e 171 172 1
e 172 200 1
e 172 173 1
e 173 201 1
e 173 174 1
e 174 202 1
e 174 175 1
e 175 203 1
e 176 204 1
e 176 177 1
e 177 205 1
e 177 178 1
e 178 206 1
e 178 179 1
e 179 207 1
e 179 180 1
e 180 208 1
e 180 181 1
e 181 209 1
e 181 182 1
e 182 210 1
e 182 183 1
e 183 211 1
e 183 184 1
e 184 212 1
e 184 185 1
e 185 213 1
e 185 186 1
e 186 214 1
e 186 187 1
e 187 215 1
e 187 188 1
e 188 216 1
e 188 189 1
e 189 217 1
e 189 190 1
e 190 218 1
e 190 191 1
e 191 219 1
e 191 192 1
e 192 220 1
e 192 193 1
e 193 221 1
e 193 194 1
e 194 222 1
e 194 195 1
e 195 223 1
e 195 196 1
e 196 224 1
e 196 197 1
e 197 225 1
e 197 198 1
e 198 226 1
e 198 199 1
e 199 227 1
e 199 200 1
e 200 228 1
e 200 201 1
e 201 229 1
e 201 202 1
e 202 230 1
e 202 203 1
e 203 231 1
e 204 232 1
e 204 205 1
e 205 233 1
e 205 206 1
e 206 234 1
e 206 207 1
e 207 235 1
e 207 208 1
e 208 236 1
e 208 209 1
e 209 237 1
e 209 210 1
e 210 238 1
e 210 211 1
e 211 239 1
e 211 212 1
e 212 240 1
e 212 213 1
e 213 241 1
e 213 214 1
e 214 242 1
e 214 215 1
e 215 243 1
e 215 216 1
e 216 244 1
e 216 217 1
e 217 245 1
e 217 218 1
e 218 246 1
e 218 219 1
e 219 247 1
e 219 220 1
e 220 248 1
e 220 221 1
e 221 249 1
e 221 222 1
e 222 250 1
e 222 223 1
e 223 251 1
e 223 224 1
e 224 252 1
e 224 225 1
e 225 253 1
e 225 226 1
e 226 254 1
e 226 227 1
e 227 255 1
e 227 228 1
e 228 256 1
e 228 229 1
e 229 257 1
e 229 230 1
e 230 258 1
e 230 231 1
e 231 259 1
e 232 260 1
e 232 233 1
e 233 261 1
e 233 234 1
e 234 262 1
e 234 235 1
e 235 263 1
e 235 236 1
e 236 264 1
e 236 237 1
e 237 265 1
e 237 238 1
e 238 266 1
e 238 239 1
e 239 267 1
e 239 240 1
e 240 268 1
e 240 241 1
e 241 269 1
e 241 242 1
e 242 270 1
e 242 243 1
e 243 271 1
e 243 244 1
e 244 272 1
e 244 245 1
e 245 273 1
e 245 246 1
e 246 274 1
e 246 247 1
e 247 275 1
e 247 248 1
e 248 276 1
e 248 249 1
e 249 277 1
e 249 250 1
e 250 278 1
e 250 251 1
e 251 279 1
e 251 252 1
e 252 280 1
e 252 253 1
e 253 281 1
e 253 254 1
e 254 282 1
e 254 255 1
e 255 283 1
e 255 256 1
e 256 284 1
e 256 257 1
e 257 285 1
e 257 258 1
e 258 286 1
e 258 259 1
e 259 287 1
e 260 288 1
e 260 261 1
e 261 289 1
e 261 262 1
e 262 290 1
e 262 263 1
e 263 291 1
e 263 264 1
e 264 292 1
e 264 265 1
e 265 293 1
e 265 266 1
e 266 294 1
e 266 267 1
e 267 295 1
e 267 268 1
e 268 296 1
e 268 269 1
e 269 297 1
e 269 270 1
e 270 298 1
e 270 271 1
e 271 299 1
e 271 272 1
e 272 300 1
e 272 273 1
e 273 301 1
e 273 274 1
e 274 302 1
e 274 275 1
e 275 303 1
e 275 276 1
e 276 304 1
e 276 277 1
e 277 305 1
e 277 278 1
e 278 306 1
e 278 279 1
e 279 307 1
e 279 280 1
e 280 308 1
e 280 281 1
e 281 309 1
e 281 282 1
e 282 310 1
e 282 283 1
e 283 311 1
e 283 284 1
e 284 312 1
e 284 285 1
e 285 313 1
e 285 286 1
e 286 314 1
e 286 287 1
e 287 315 1
e 288 316 1
e 288 289 1
e 289 317 1
e 289 290 1
e 290 318 1
e 290 291 1
e 291 319 1
e 291 292 1
e 292 320 1
e 292 293 1
e 293 321 1
e 293 294 1
e 294 322 1
e 294 295 1
e 295 323 1
e 295 296 1
e 296 324 1
e 296 297 1
e 297 325 1
e 297 298 1
e 298 326 1
e 298 299 1
e 299 327 1
e 299 300 1
e 300 328 1
e 300 301 1
e 301 329 1
e 301 302 1
e 302 330 1
e 302 303 1
e 303 331 1
e 303 304 1
e 304 332 1
e 304 305 1
e 305 333 1
e 305 306 1
e 306 334 1
e 306 307 1
e 307 335 1
e 307 308 1
e 308 336 1
e 308 309 1
e 309 337 1
e 309 310 1
e 310 338 1
e 310 311 1
e 311 339 1
e 311 312 1
e 312 340 1
e 312 313 1
e 313 341 1
e 313 314 1
e 314 342 1
e 314 315 1
e 315 343 1
e 316 317 1
e 317 344 1
e 317 318 1
e 318 345 1
e 318 319 1
e 319 346 1
e 319 320 1
e 320 347 1
e 320 321 1
e 321 348 1
e 321 322 1
e 322 349 1
e 322 323 1
e 323 350 1
e 323 324 1
e 324 351 1
e 324 325 1
e 325 352 1
e 325 326 1
e 326 353 1
e 326 327 1
e 327 354 1
e 327 328 1
e 328 355 1
e 328 329 1
e 329 356 1
e 329 330 1
e 330 357 1
e 330 331 1
e 331 358 1
e 331 332 1
e 332 359 1
e 332 333 1
e 333 360 1
e 333 334 1
e 334 361 1
e 334 335 1
e 335 362 1
e 335 336 1
e 336 363 1
e 336 337 1
e 337 364 1
e 337 338 1
e 338 365 1
e 338 339 1
e 339 366 1
e 339 340 1
e 340 367 1
e 340 341 1
e 341 368 1
e 341 342 1
e 342 369 1
e 342 343 1
e 344 370 1
e 344 345 1
e 345 371 1
e 345 346 1
e 346 372 1
e 346 347 1
e 347 373 1
e 347 348 1
e 348 374 1
e 348 349 1
e 349 375 1
e 349 350 1
e 350 376 1
e 350 351 1
e 351 377 1
e 351 352 1
e 352 378 1
e 352 353 1
e 353 379 1
e 353 354 1
e 354 380 1
e 354 355 1
e 355 381 1
e 355 356 1
e 356 382 1
e 356 357 1
e 357 383 1
e 357 358 1
e 358 384 1
e 358 359 1
e 359 385 1
e 359 360 1
e 360 386 1
e 360 361 1
e 361 387 1
e 361 362 1
e 362 388 1
e 362 363 1
e 363 389 1
e 363 364 1
e 364 390 1
e 364 365 1
e 365 391 1
e 365 366 1
e 366 392 1
e 366 367 1
e 367 393 1
e 367 368 1
e 368 394 1
e 368 369 1
e 370 371 1
e 371 395 1
e 371 372 1
e 372 396 1
e 372 373 1
e 373 397 1
e 373 374 1
e 374 398 1
e 374 375 1
e 375 399 1
e 375 376 1
e 376 400 1
e 376 377 1
e 377 401 1
e 377 378 1
e 378 402 1
e 378 379 1
e 379 403 1
e 379 380 1
e 380 404 1
e 380 381 1
e 381 405 1
e 381 382 1
e 382 406 1
e 382 383 1
e 383 407 1
e 383 384 1
e 384 408 1
e 384 385 1
e 385 409 1
e 385 386 1
e 386 410 1
e 386 387 1
e 387 411 1
e 387 388 1
e 388 412 1
e 388 389 1
e 389 413 1
e 389 390 1
e 390 414 1
e 390 391 1
e 391 415 1
e 391 392 1
e 392 416 1
e 392 393 1
e 393 417 1
e 393 394 1
e 394 418 1
e 395 419 1
e 395 396 1
e 396 420 1
e 396 397 1
e 397 421 1
e 397 398 1
e 398 422 1
e 398 399 1
e 399 423 1
e 399 400 1
e 400 424 1
e 400 401 1
e 401 425 1
e 401 402 1
e 402 426 1
e 402 403 1
e 403 427 1
e 403 404 1
e 404 428 1
e 404 405 1
e 405 429 1
e 405 406 1
e 406 430 1
e 406 407 1
e 407 431 1
e 407 408 1
e 408 432 1
e 408 409 1
e 409 433 1
e 409 410 1
e 410 434 1
e 410 411 1
e 411 435 1
e 411 412 1
e 412 436 1
e 412 413 1
e 413 437 1
e 413 414 1
e 414 438 1
e 414 415 1
e 415 439 1
e 415 416 1
e 416 440 1
e 416 417 1
e 417 441 1
e 417 418 1
e 418 442 1
e 419 420 1
e 420 421 1
e 421 422 1
e 422 423 1
e 423 444 1
e 423 424 1
e 424 445 1
e 424 425 1
e 425 446 1
e 425 426 1
e 426 447 1
e 426 427 1
e 427 448 1
e 427 428 1
e 428 449 1
e 428 429 1
e 429 450 1
e 429 430 1
e 430 451 1
e 430 431 1
e 431 452 1
e 431 432 1
e 432 453 1
e 432 433 1
e 433 454 1
e 433 434 1
e 434 455 1
e 434 435 1
e 435 456 1
e 435 436 1
e 436 457 1
e 436 437 1
e 437 458 1
e 437 438 1
e 438 459 1
e 438 439 1
e 439 460 1
e 439 440 1
e 440 461 1
e 440 441 1
e 441 462 1
e 441 442 1
e 442 463 1
e 442 443 1
e 443 464 1
e 444 445 1
e 445 446 1
e 446 466 1
e 446 447 1
e 447 467 1
e 447 448 1
e 448 468 1
e 448 449 1
e 449 469 1
e 449 450 1
e 450 470 1
e 450 451 1
e 451 471 1
e 451 452 1
e 452 472 1
e 452 453 1
e 453 473 1
e 453 454 1
e 454 474 1
e 454 455 1
e 455 475 1
e 455 456 1
e 456 476 1
e 456 457 1
e 457 477 1
e 457 458 1
e 458 478 1
e 458 459 1
e 459 479 1
e 459 460 1
e 460 480 1
e 460 461 1
e 461 481 1
e 461 462 1
e 462 482 1
e 462 463 1
e 463 464 1
e 464 465 1
e 466 467 1
e 467 468 1
e 468 469 1
e 469 470 1
e 470 471 1
e 471 472 1
e 472 473 1
e 473 474 1
e 474 483 1
e 474 475 1
e 475 484 1
e 475 476 1
e 476 485 1
e 476 477 1
e 477 486 1
e 477 478 1
e 478 479 1
e 479 480 1
e 480 481 1
e 481 482 1
e 483 487 1
e 483 484 1
e 484 488 1
e 484 485 1
e 485 489 1
e 485 486 1
e 486 490 1
e 487 491 1
e 487 488 1
e 488 492 1
e 488 489 1
e 489 493 1
e 489 490 1
e 490 494 1
e 491 495 1
e 491 492 1
e 492 496 1
e 492 493 1
e 493 497 1
e 493 494 1
e 494 498 1
e 495 501 1
e 495 496 1
e 496 502 1
e 496 497 1
e 497 503 1
e 497 498 1
e 498 504 1
e 499 509 1
e 499 500 1
e 500 510 1
e 500 501 1
e 501 511 1
e 501 502 1
e 502 512 1
e 502 503 1
e 503 513 1
e 503 504 1
e 504 514 1
e 504 505 1
e 505 515 1
e 505 506 1
e 506 516 1
e 506 507 1
e 507 517 1
e 507 508 1
e 508 518 1
e 509 530 1
e 509 510 1
e 510 531 1
e 510 511 1
e 511 532 1
e 511 512 1
e 512 533 1
e 512 513 1
e 513 534 1
e 513 514 1
e 514 535 1
e 514 515 1
e 515 536 1
e 515 516 1
e 516 537 1
e 516 517 1
e 517 538 1
e 517 518 1
e 518 539 1
e 519 541 1
e 519 520 1
e 520 542 1
e 520 521 1
e 521 543 1
e 521 522 1
e 522 544 1
e 522 523 1
e 523 545 1
e 523 524 1
e 524 546 1
e 524 525 1
e 525 547 1
e 525 526 1
e 526 548 1
e 526 527 1
e 527 549 1
e 527 528 1
e 528 550 1
e 528 529 1
e 529 551 1
e 529 530 1
e 530 552 1
e 530 531 1
e 531 553 1
e 531 532 1
e 532 554 1
e 532 533 1
e 533 555 1
e 533 534 1
e 534 556 1
e 534 535 1
e 535 557 1
e 535 536 1
e 536 558 1
e 536 537 1
e 537 559 1
e 537 538 1
e 538 560 1
e 538 539 1
e 539 561 1
e 539 540 1
e 540 562 1
e 541 566 1
e 541 542 1
e 542 567 1
e 542 543 1
e 543 568 1
e 543 544 1
e 544 569 1
e 544 545 1
e 545 570 1
e 545 546 1
e 546 571 1
e 546 547 1
e 547 572 1
e 547 548 1
e 548 573 1
e 548 549 1
e 549 574 1
e 549 550 1
e 550 575 1
e 550 551 1
e 551 576 1
e 551 552 1
e 552 577 1
e 552 553 1
e 553 578 1
e 553 554 1
e 554 579 1
e 554 555 1
e 555 580 1
e 555 556 1
e 556 581 1
e 556 557 1
e 557 582 1
e 557 558 1
e 558 583 1
e 558 559 1
e 559 584 1
e 559 560 1
e 560 585 1
e 560 561 1
e 561 586 1
e 561 562 1
e 562 587 1
e 562 563 1
e 563 588 1
e 563 564 1
e 564 589 1
e 564 565 1
e 565 590 1
e 566 591 1
e 566 567 1
e 567 592 1
e 567 568 1
e 568 593 1
e 568 569 1
e 569 594 1
e 569 570 1
e 570 595 1
e 570 571 1
e 571 596 1
e 571 572 1
e 572 597 1
e 572 573 1
e 573 598 1
e 573 574 1
e 574 599 1
e 574 575 1
e 575 600 1
e 575 576 1
e 576 601 1
e 576 577 1
e 577 602 1
e 577 578 1
e 578 603 1
e 578 579 1
e 579 604 1
e 579 580 1
e 580 605 1
e 580 581 1
e 581 606 1
e 581 582 1
e 582 607 1
e 582 583 1
e 583 608 1
e 583 584 1
e 584 609 1
e 584 585 1
e 585 610 1
e 585 586 1
e 586 611 1
e 586 587 1
e 587 612 1
e 587 588 1
e 588 613 1
e 588 589 1
e 589 614 1
e 589 590 1
e 590 615 1
e 591 617 1
e 591 592 1
e 592 618 1
e 592 593 1
e 593 619 1
e 593 594 1
e 594 620 1
e 594 595 1
e 595 621 1
e 595 596 1
e 596 622 1
e 596 597 1
e 597 623 1
e 597 598 1
e 598 624 1
e 598 599 1
e 599 625 1
e 599 600 1
e 600 626 1
e 600 601 1
e 601 627 1
e 601 602 1
e 602 628 1
e 602 603 1
e 603 629 1
e 603 604 1
e 604 630 1
e 604 605 1
e 605 631 1
e 605 606 1
e 606 632 1
e 606 607 1
e 607 633 1
e 607 608 1
e 608 634 1
e 608 609 1
e 609 635 1
e 609 610 1
e 610 636 1
e 610 611 1
e 611 637 1
e 611 612 1
e 612 638 1
e 612 613 1
e 613 639 1
e 613 614 1
e 614 640 1
e 614 615 1
e 615 641 1
e 616 642 1
e 616 617 1
e 617 643 1
e 617 618 1
e 618 644 1
e 618 619 1
e 619 645 1
e 619 620 1
e 620 646 1
e 620 621 1
e 621 647 1
e 621 622 1
e 622 648 1
e 622 623 1
e 623 649 1
e 623 624 1
e 624 650 1
e 624 625 1
e 625 651 1
e 625 626 1
e 626 652 1
e 626 627 1
e 627 653 1
e 627 628 1
e 628 654 1
e 628 629 1
e 629 655 1
e 629 630 1
e 630 656 1
e 630 631 1
e 631 657 1
e 631 632 1
e 632 658 1
e 632 633 1
e 633 659 1
e 633 634 1
e 634 660 1
e 634 635 1
e 635 661 1
e 635 636 1
e 636 662 1
e 636 637 1
e 637 663 1
e 637 638 1
e 638 664 1
e 638 639 1
e 639 665 1
e 639 640 1
e 640 666 1
e 640 641 1
e 641 667 1
e 642 671 1
e 642 643 1
e 643 672 1
e 643 644 1
e 644 673 1
e 644 645 1
e 645 674 1
e 645 646 1
e 646 675 1
e 646 647 1
e 647 676 1
e 647 648 1
e 648 677 1
e 648 649 1
e 649 678 1
e 649 650 1
e 650 679 1
e 650 651 1
e 651 680 1
e 651 652 1
e 652 681 1
e 652 653 1
e 653 682 1
e 653 654 1
e 654 683 1
e 654 655 1
e 655 684 1
e 655 656 1
e 656 685 1
e 656 657 1
e 657 686 1
e 657 658 1
e 658 687 1
e 658 659 1
e 659 688 1
e 659 660 1
e 660 689 1
e 660 661 1
e 661 690 1
e 661 662 1
e 662 691 1
e 662 663 1
e 663 692 1
e 663 664 1
e 664 693 1
e 664 665 1
e 665 694 1
e 665 666 1
e 666 695 1
e 666 667 1
e 667 696 1
e 668 709 1
e 668 669 1
e 669 710 1
e 669 670 1
e 670 711 1
e 670 671 1
e 671 712 1
e 671 672 1
e 672 713 1
e 672 673 1
e 673 714 1
e 673 674 1
e 674 715 1
e 674 675 1
e 675 716 1
e 675 676 1
e 676 717 1
e 676 677 1
e 677 718 1
e 677 678 1
e 678 719 1
e 678 679 1
e 679 720 1
e 679 680 1
e 680 721 1
e 680 681 1
e 681 722 1
e 681 682 1
e 682 723 1
e 682 683 1
e 683 724 1
e 683 684 1
e 684 725 1
e 684 685 1
e 685 726 1
e 685 686 1
e 686 727 1
e 686 687 1
e 687 728 1
e 687 688 1
e 688 729 1
e 688 689 1
e 689 730 1
e 689 690 1
e 690 731 1
e 690 691 1
e 691 732 1
e 691 692 1
e 692 733 1
e 692 693 1
e 693 734 1
e 693 694 1
e 694 735 1
e 694 695 1
e 695 736 1
e 695 696 1
e 696 737 1
e 696 697 1
e 697 738 1
e 698 741 1
e 698 699 1
e 699 742 1
e 699 700 1
e 700 743 1
e 700 701 1
e 701 744 1
e 701 702 1
e 702 745 1
e 702 703 1
e 703 746 1
e 703 704 1
e 704 747 1
e 704 705 1
e 705 748 1
e 705 706 1
e 706 749 1
e 706 707 1
e 707 750 1
e 707 708 1
e 709 751 1
e 709 710 1
e 710 752 1
e 710 711 1
e 711 753 1
e 711 712 1
e 712 754 1
e 712 713 1
e 713 755 1
e 713 714 1
e 714 756 1
e 714 715 1
e 715 757 1
e 715 716 1
e 716 758 1
e 716 717 1
e 717 759 1
e 717 718 1
e 718 760 1
e 718 719 1
e 719 761 1
e 719 720 1
e 720 762 1
e 720 721 1
e 721 763 1
e 721 722 1
e 722 764 1
e 722 723 1
e 723 765 1
e 723 724 1
e 724 766 1
e 724 725 1
e 725 767 1
e 725 726 1
e 726 768 1
e 726 727 1
e 727 769 1
e 727 728 1
e 728 770 1
e 728 729 1
e 729 771 1
e 729 730 1
e 730 772 1
e 730 731 1
e 731 773 1
e 731 732 1
e 732 774 1
e 732 733 1
e 733 775 1
e 733 734 1
e 734 776 1
e 734 735 1
e 735 777 1
e 735 736 1
e 736 778 1
e 736 737 1
e 737 779 1
e 737 738 1
e 738 780 1
e 738 739 1
e 739 781 1
e 739 740 1
e 740 782 1
e 740 741 1
e 741 783 1
e 741 742 1
e 742 784 1
e 742 743 1
e 743 785 1
e 743 744 1
e 744 786 1
e 744 745 1
e 745 787 1
e 745 746 1
e 746 788 1
e 746 747 1
e 747 789 1
e 747 748 1
e 748 790 1
e 748 749 1
e 749 791 1
e 749 750 1
e 750 792 1
e 751 794 1
e 751 752 1
e 752 795 1
e 752 753 1
e 753 796 1
e 753 754 1
e 754 797 1
e 754 755 1
e 755 798 1
e 755 756 1
e 756 799 1
e 756 757 1
e 757 800 1
e 757 758 1
e 758 801 1
e 758 759 1
e 759 802 1
e 759 760 1
e 760 803 1
e 760 761 1
e 761 804 1
e 761 762 1
e 762 805 1
e 762 763 1
e 763 806 1
e 763 764 1
e 764 807 1
e 764 765 1
e 765 808 1
e 765 766 1
e 766 809 1
e 766 767 1
e 767 810 1
e 767 768 1
e 768 769 1
e 769 811 1
e 769 770 1
e 770 812 1
e 770 771 1
e 771 813 1
e 771 772 1
e 772 814 1
e 772 773 1
e 773 815 1
e 773 774 1
e 774 816 1
e 774 775 1
e 775 817 1
e 775 776 1
e 776 818 1
e 776 777 1
e 777 819 1
e 777 778 1
e 778 820 1
e 778 779 1
e 779 821 1
e 779 780 1
e 780 822 1
e 780 781 1
e 781 782 1
e 782 783 1
e 783 823 1
e 783 784 1
e 784 824 1
e 784 785 1
e 785 825 1
e 785 786 1
e 786 826 1
e 786 787 1
e 787 827 1
e 787 788 1
e 788 828 1
e 788 789 1
e 789 829 1
e 789 790 1
e 790 830 1
e 790 791 1
e 791 831 1
e 791 792 1
e 792 832 1
e 792 793 1
e 793 833 1
e 794 795 1
e 795 834 1
e 795 796 1
e 796 835 1
e 796 797 1
e 797 836 1
e 797 798 1
e 798 837 1
e 798 799 1
e 799 838 1
e 799 800 1
e 800 839 1
e 800 801 1
e 801 840 1
e 801 802 1
e 802 841 1
e 802 803 1
e 803 842 1
e 803 804 1
e 804 843 1
e 804 805 1
e 805 844 1
e 805 806 1
e 806 845 1
e 806 807 1
e 807 846 1
e 807 808 1
e 808 847 1
e 808 809 1
e 809 848 1
e 809 810 1
e 811 812 1
e 812 849 1
e 812 813 1
e 813 850 1
e 813 814 1
e 814 851 1
e 814 815 1
e 815 852 1
e 815 816 1
e 816 853 1
e 816 817 1
e 817 854 1
e 817 818 1
e 818 855 1
e 818 819 1
e 819 856 1
e 819 820 1
e 820 857 1
e 820 821 1
e 821 858 1
e 821 822 1
e 823 824 1
e 824 859 1
e 824 825 1
e 825 860 1
e 825 826 1
e 826 861 1
e 826 827 1
e 827 862 1
e 827 828 1
e 828 863 1
e 828 829 1
e 829 864 1
e 829 830 1
e 830 865 1
e 830 831 1
e 831 866 1
e 831 832 1
e 832 867 1
e 832 833 1
e 833 868 1
e 834 869 1
e 834 835 1
e 835 870 1
e 835 836 1
e 836 871 1
e 836 837 1
e 837 872 1
e 837 838 1
e 838 873 1
e 838 839 1
e 839 874 1
e 839 840 1
e 840 875 1
e 840 841 1
e 841 876 1
e 841 842 1
e 842 877 1
e 842 843 1
e 843 878 1
e 843 844 1
e 844 879 1
e 844 845 1
e 845 880 1
e 845 846 1
e 846 881 1
e 846 847 1
e 847 882 1
e 847 848 1
e 848 883 1
e 849 884 1
e 849 850 1
e 850 885 1
e 850 851 1
e 851 886 1
e 851 852 1
e 852 887 1
e 852 853 1
e 853 854 1
e 854 855 1
e 855 856 1
e 856 888 1
e 856 857 1
e 857 889 1
e 857 858 1
e 858 890 1
e 859 891 1
e 859 860 1
e 860 892 1
e 860 861 1
e 861 893 1
e 861 862 1
e 862 894 1
e 862 863 1
e 863 895 1
e 863 864 1
e 864 896 1
e 864 865 1
e 865 897 1
e 865 866 1
e 866 898 1
e 866 867 1
e 867 899 1
e 867 868 1
e 868 900 1
e 869 901 1
e 869 870 1
e 870 902 1
e 870 871 1
e 871 903 1
e 871 872 1
e 872 904 1
e 872 873 1
e 873 905 1
e 873 874 1
e 874 906 1
e 874 875 1
e 875 907 1
e 875 876 1
e 876 908 1
e 876 877 1
e 877 909 1
e 877 878 1
e 878 910 1
e 878 879 1
e 879 911 1
e 879 880 1
e 880 912 1
e 880 881 1
e 881 913 1
e 881 882 1
e 882 914 1
e 882 883 1
e 883 915 1
e 884 885 1
e 885 916 1
e 885 886 1
e 886 917 1
e 886 887 1
e 887 918 1
e 888 919 1
e 888 889 1
e 889 920 1
e 889 890 1
e 890 921 1
e 891 922 1
e 891 892 1
e 892 923 1
e 892 893 1
e 893 924 1
e 893 894 1
e 894 925 1
e 894 895 1
e 895 926 1
e 895 896 1
e 896 927 1
e 896 897 1
e 897 928 1
e 897 898 1
e 898 929 1
e 898 899 1
e 899 930 1
e 899 900 1
e 900 931 1
e 901 932 1
e 901 902 1
e 902 933 1
e 902 903 1
e 903 934 1
e 903 904 1
e 904 935 1
e 904 905 1
e 905 936 1
e 905 906 1
e 906 937 1
e 906 907 1
e 907 938 1
e 907 908 1
e 908 939 1
e 908 909 1
e 909 940 1
e 909 910 1
e 910 941 1
e 910 911 1
e 911 942 1
e 911 912 1
e 912 943 1
e 912 913 1
e 913 944 1
e 913 914 1
e 914 945 1
e 914 915 1
e 915 946 1
e 916 947 1
e 916 917 1
e 917 948 1
e 917 918 1
e 918 949 1
e 919 952 1
e 919 920 1
e 920 921 1
e 922 923 1
e 923 924 1
e 924 953 1
e 924 925 1
e 925 954 1
e 925 926 1
e 926 955 1
e 926 927 1
e 927 956 1
e 927 928 1
e 928 957 1
e 928 929 1
e 929 958 1
e 929 930 1
e 930 959 1
e 930 931 1
e 931 960 1
e 932 962 1
e 932 933 1
e 933 963 1
e 933 934 1
e 934 964 1
e 934 935 1
e 935 965 1
e 935 936 1
e 936 966 1
e 936 937 1
e 937 967 1
e 937 938 1
e 938 968 1
e 938 939 1
e 939 969 1
e 939 940 1
e 940 970 1
e 940 941 1
e 941 971 1
e 941 942 1
e 942 972 1
e 942 943 1
e 943 973 1
e 943 944 1
e 944 974 1
e 944 945 1
e 945 975 1
e 945 946 1
e 946 976 1
e 947 977 1
e 947 948 1
e 948 978 1
e 948 949 1
e 949 979 1
e 949 950 1
e 950 980 1
e 951 982 1
e 951 952 1
e 952 983 1
e 953 984 1
e 953 954 1
e 954 985 1
e 954 955 1
e 955 986 1
e 955 956 1
e 956 987 1
e 956 957 1
e 957 988 1
e 957 958 1
e 958 959 1
e 959 960 1
e 960 989 1
e 960 961 1
e 961 990 1
e 962 963 1
e 963 964 1
e 964 965 1
e 965 966 1
e 966 967 1
e 967 992 1
e 967 968 1
e 968 993 1
e 968 969 1
e 969 994 1
e 969 970 1
e 970 995 1
e 970 971 1
e 971 996 1
e 971 972 1
e 972 997 1
e 972 973 1
e 973 998 1
e 973 974 1
e 974 999 1
e 974 975 1
e 975 1000 1
e 975 976 1
e 976 1001 1
e 977 1003 1
e 977 978 1
e 978 1004 1
e 978 979 1
e 979 1005 1
e 979 980 1
e 980 1006 1
e 980 981 1
e 981 982 1
e 982 1007 1
e 982 983 1
e 983 1008 1
e 984 1009 1
e 984 985 1
e 985 1010 1
e 985 986 1
e 986 1011 1
e 986 987 1
e 987 1012 1
e 987 988 1
e 989 990 1
e 990 991 1
e 992 993 1
e 993 994 1
e 994 995 1
e 995 996 1
e 996 997 1
e 997 998 1
e 998 1013 1
e 998 999 1
e 999 1014 1
e 999 1000 1
e 1000 1015 1
e 1000 1001 1
e 1001 1016 1
e 1002 1017 1
e 1002 1003 1
e 1003 1018 1
e 1003 1004 1
e 1004 1019 1
e 1004 1005 1
e 1005 1020 1
e 1005 1006 1
e 1007 1008 1
e 1008 1021 1
e 1009 1022 1
e 1009 1010 1
e 1010 1023 1
e 1010 1011 1
e 1011 1024 1
e 1011 1012 1
e 1012 1025 1
e 1013 1026 1
e 1013 1014 1
e 1014 1027 1
e 1014 1015 1
e 1015 1028 1
e 1015 1016 1
e 1016 1029 1
e 1017 1033 1
e 1017 1018 1
e 1018 1034 1
e 1018 1019 1
e 1019 1020 1
e 1021 1035 1
e 1022 1036 1
e 1022 1023 1
e 1023 1037 1
e 1023 1024 1
e 1024 1038 1
e 1024 1025 1
e 1025 1039 1
e 1026 1027 1
e 1027 1028 1
e 1028 1029 1
e 1029 1030 1
e 1030 1031 1
e 1031 1032 1
e 1032 1033 1
e 1033 1034 1
e 1036 1037 1
e 1037 1038 1
e 1038 1039 1